Route #1: 63 77 3
Route #2: 31 46 35
Route #3: 83 51 81
Route #4: 71 62 99 98 89
Route #5: 59 60 82
Route #6: 76 55 16 69
Route #7: 39 10 18
Route #8: 17 8
Route #9: 93 75
Route #10: 58 12 5
Route #11: 25 65 78 42 28
Route #12: 32 33 53 73 95 24
Route #13: 30 85 11 79
Route #14: 34 64 96 48 26 47 38
Route #15: 92 9 86
Route #16: 68 90 84 66
Route #17: 44 67 88 40
Route #18: 57 72 36 29 43 45 2 7
Route #19: 52 91 50
Route #20: 74 13 4
Route #21: 1 70 54
Route #22: 23 61 100
Route #23: 80 94 56 21
Route #24: 27 97 19
Route #25: 14 49 6 37 87
Route #26: 20 41 22 15
Cost 27591.0000
Time 16.0002